data/solutions/planning/wellformed/moderate/weighting/wellformed_moderate_instance14_gurobi.sol
Elapsed time: 0.08
Nodes explored: 0
Nodes left: 0
Relative gap: 0.0
Upper bound: 9555.0
Lower bound: 9555
C[0]=1365.0
C[1]=1365.0
C[2]=1365.0
y[0]=2
y[1]=0
y[2]=1
y[3]=1
y[4]=2
y[5]=1
y[6]=1
y[7]=1
y[8]=1
y[9]=1
y[10]=2
y[11]=0
y[12]=0
y[13]=1
y[14]=1
y[15]=1
y[16]=0
y[17]=2
y[18]=1
y[19]=2
y[20]=2
y[21]=2
y[22]=2
y[23]=2
y[24]=2
y[25]=1
y[26]=2
y[27]=2
y[28]=0
y[29]=1
y[30]=0
y[31]=1
y[32]=0
y[33]=0
y[34]=0
y[35]=1
y[36]=0
y[37]=0
y[38]=0
y[39]=0
