data/solutions/planning/wellformed/moderate/weighting/wellformed_moderate_instance14_gurobi.log

Gurobi 6.5.2 (linux64) logging started Fri Mar  2 12:47:37 2018

Changed value of parameter LogFile to data/solutions/planning/wellformed/moderate/weighting/wellformed_moderate_instance14_gurobi.log
   Prev: gurobi.log  Default: 
Changed value of parameter Threads to 1
   Prev: 0  Min: 0  Max: 1024  Default: 0
Optimize a model with 46 rows, 124 columns and 248 nonzeros
Coefficient statistics:
  Matrix range    [1e+00, 2e+02]
  Objective range [1e+00, 4e+00]
  Bounds range    [1e+00, 1e+00]
  RHS range       [1e+00, 1e+00]
Found heuristic solution: objective 13754
Presolve removed 3 rows and 3 columns
Presolve time: 0.00s
Presolved: 43 rows, 121 columns, 243 nonzeros
Variable types: 0 continuous, 121 integer (120 binary)

Root relaxation: objective 9.555000e+03, 59 iterations, 0.00 seconds

    Nodes    |    Current Node    |     Objective Bounds      |     Work
 Expl Unexpl |  Obj  Depth IntInf | Incumbent    BestBd   Gap | It/Node Time

     0     0 9555.00000    0    3 13754.0000 9555.00000  30.5%     -    0s
H    0     0                    9625.0000000 9555.00000  0.73%     -    0s
     0     0 9555.00000    0    7 9625.00000 9555.00000  0.73%     -    0s
     0     0 9555.00000    0    2 9625.00000 9555.00000  0.73%     -    0s
     0     0 9555.00000    0    7 9625.00000 9555.00000  0.73%     -    0s
     0     0 9555.00000    0    6 9625.00000 9555.00000  0.73%     -    0s
H    0     0                    9555.0000000 9555.00000  0.00%     -    0s

Cutting planes:
  MIR: 1

Explored 0 nodes (106 simplex iterations) in 0.01 seconds
Thread count was 1 (of 8 available processors)

Optimal solution found (tolerance 1.00e-04)
Best objective 9.555000000000e+03, best bound 9.555000000000e+03, gap 0.0%
